c Example sudoku problem for testing input and output.
c This assumes that methodology for solver will be uisng MiniSAT's CNF format

c Sudoku is in format x_#(row, column, value)

p cnf 729 5000 
1 2 3 4 5 6 7 8 9 0 
-1 -2 0 
101 0 